; machine: Machine: 0b1011001 Buttons: 8 [1, 2, 4, 6, 8] [0, 1, 6] [0, 1, 2, 5, 6, 8] [0, 1, 2, 4, 6, 7, 8] [0, 2, 4, 6, 7, 8] [0, 1, 2, 3, 4, 5] [3, 5, 7] [0, 3, 4, 6] Joltage: 56,47,33,28,34,27,55,4,24
(set-logic QF_LIA) ; Quantifier-Free Linear Integer Arithmetic (or QF_LRA for Reals)
(declare-const n0 Int)
(declare-const n1 Int)
(declare-const n2 Int)
(declare-const n3 Int)
(declare-const n4 Int)
(declare-const n5 Int)
(declare-const n6 Int)
(declare-const n7 Int)
(assert (>= n0 0))
(assert (>= n1 0))
(assert (>= n2 0))
(assert (>= n3 0))
(assert (>= n4 0))
(assert (>= n5 0))
(assert (>= n6 0))
(assert (>= n7 0))
(minimize (+ n0 n1 n2 n3 n4 n5 n6 n7))
(assert (= (+ n1 n2 n3 n4 n5 n7) 56))
(assert (= (+ n0 n1 n2 n3 n5) 47))
(assert (= (+ n0 n2 n3 n4 n5) 33))
(assert (= (+ n5 n6 n7) 28))
(assert (= (+ n0 n3 n4 n5 n7) 34))
(assert (= (+ n2 n5 n6) 27))
(assert (= (+ n0 n1 n2 n3 n4 n7) 55))
(assert (= (+ n3 n4 n6) 4))
(assert (= (+ n0 n2 n3 n4) 24))
(check-sat)
(get-model)
